src/main/resources/edu/kit/provideq/toolbox/mip/simple.lp
Maximize
    obj: 3 x + 4 y

Subject To
    c1: x + 2 y <= 14
    c2: -3 x + y <= 0
    c3: x - y <= 2

Bounds
    0 <= x <= 6
    0 <= y <= 7

Generals
    x
    y

End
